(declare-fun temp1218_1 () (_ BitVec 64))
(declare-fun var989741 () (_ BitVec 64))
(declare-fun temp1218_2 () (_ BitVec 64))
(declare-fun var989757 () (_ BitVec 64))
(declare-fun temp1218_3 () (_ BitVec 64))
(declare-fun var989761 () (_ BitVec 64))
(declare-fun var989766 () (_ BitVec 64))
(declare-fun var989767 () (_ BitVec 64))
(declare-fun ARGNAME_input_NAMEEND_DIM () (_ BitVec 64))
(declare-fun var989768 () (_ BitVec 64))
(declare-fun var989771 () (_ BitVec 64))
(declare-fun var989772 () (_ BitVec 64))
(declare-fun var989773 () (_ BitVec 64))
(declare-fun temp1218_4 () (_ BitVec 64))
(declare-fun var989774 () (_ BitVec 64))
(declare-fun temp1218_5 () (_ BitVec 64))
(declare-fun var989775 () (_ BitVec 64))
(declare-fun temp1218_6 () (_ BitVec 64))
(declare-fun var989776 () (_ BitVec 64))
(declare-fun temp1218_7 () (_ BitVec 64))
(declare-fun var989810 () (_ BitVec 64))
(declare-fun temp1218_8 () (_ BitVec 64))
(declare-fun temp1218_10 () (_ BitVec 64))
(declare-fun temp1218_9 () (_ BitVec 64))
(declare-fun temp1218_12 () (_ BitVec 64))
(declare-fun temp1218_11 () (_ BitVec 64))
(declare-fun temp1218_13 () (_ BitVec 64))
(declare-fun var1387902 () (_ BitVec 64))
(declare-fun temp1218_14 () (_ BitVec 64))
(declare-fun var1387923 () (_ BitVec 64))
(declare-fun var1521369 () (_ BitVec 64))
(declare-fun var1521373 () (_ BitVec 64))
(declare-fun var1521631 () (_ BitVec 64))
(declare-fun var1521633 () (_ BitVec 64))
(declare-fun temp1218_15 () (_ BitVec 64))
(declare-fun ARGNAME_weight_NAMEEND_DIM () (_ BitVec 64))
(declare-fun var1521660 () (_ BitVec 64))
(declare-fun temp1218_16 () (_ BitVec 64))
(declare-fun var1521661 () (_ BitVec 64))
(declare-fun temp1218_17 () (_ BitVec 64))
(declare-fun temp1218_18 () (_ BitVec 64))
(declare-fun ARGNAME_groups_NAMEEND () (_ BitVec 64))
(declare-fun var1521706 () (_ BitVec 64))
(declare-fun temp1218_19 () (_ BitVec 64))
(declare-fun ARGNAME_stride_NAMEEND_LEN () (_ BitVec 64))
(declare-fun ARGNAME_padding_NAMEEND_LEN () (_ BitVec 64))
(declare-fun ARGNAME_dilation_NAMEEND_LEN () (_ BitVec 64))
(declare-fun var2240288 () (_ BitVec 64))
(declare-fun temp1218_20 () (_ BitVec 64))
(declare-fun temp1218_21 () (_ BitVec 64))
(declare-fun ARGNAME_padding_NAMEEND_VAL () (Array (_ BitVec 64) (_ BitVec 64)))
(declare-fun temp1218_22 () (_ BitVec 64))
(declare-fun temp1218_23 () (_ BitVec 64))
(declare-fun temp1218_24 () (_ BitVec 64))
(declare-fun temp1218_25 () (_ BitVec 64))
(declare-fun temp1218_26 () (_ BitVec 64))
(declare-fun temp1218_27 () (_ BitVec 64))
(declare-fun temp1218_28 () (_ BitVec 64))
(declare-fun temp1218_29 () (_ BitVec 64))
(declare-fun temp1218_30 () (_ BitVec 64))
(declare-fun temp1218_31 () (_ BitVec 64))
(declare-fun temp1218_32 () (_ BitVec 64))
(declare-fun temp1218_33 () (_ BitVec 64))
(declare-fun temp1218_34 () (_ BitVec 64))
(declare-fun temp1218_35 () (_ BitVec 64))
(declare-fun temp1218_36 () (_ BitVec 64))
(declare-fun temp1218_37 () (_ BitVec 64))
(declare-fun temp1218_38 () (_ BitVec 64))
(declare-fun temp1218_39 () (_ BitVec 64))
(declare-fun temp1218_40 () (_ BitVec 64))
(declare-fun temp1218_41 () (_ BitVec 64))
(declare-fun temp1218_42 () (_ BitVec 64))
(declare-fun temp1218_43 () (_ BitVec 64))
(declare-fun temp1218_44 () (_ BitVec 64))
(declare-fun temp1218_45 () (_ BitVec 64))
(declare-fun temp1218_46 () (_ BitVec 64))
(declare-fun temp1218_47 () (_ BitVec 64))
(declare-fun temp1218_48 () (_ BitVec 64))
(declare-fun temp1218_49 () (_ BitVec 64))
(declare-fun temp1218_50 () (_ BitVec 64))
(declare-fun temp1218_51 () (_ BitVec 64))
(declare-fun temp1218_52 () (_ BitVec 64))
(declare-fun temp1218_53 () (_ BitVec 64))
(declare-fun temp1218_54 () (_ BitVec 64))
(declare-fun temp1218_55 () (_ BitVec 64))
(declare-fun temp1218_56 () (_ BitVec 64))
(declare-fun temp1218_57 () (_ BitVec 64))
(declare-fun temp1218_58 () (_ BitVec 64))
(declare-fun temp1218_59 () (_ BitVec 64))
(declare-fun temp1218_60 () (_ BitVec 64))
(declare-fun temp1218_61 () (_ BitVec 64))
(declare-fun var2240290 () (_ BitVec 64))
(declare-fun temp1218_62 () (_ BitVec 64))
(declare-fun temp1218_63 () (_ BitVec 64))
(declare-fun temp1218_64 () (_ BitVec 64))
(declare-fun ARGNAME_stride_NAMEEND_VAL () (Array (_ BitVec 64) (_ BitVec 64)))
(declare-fun temp1218_65 () (_ BitVec 64))
(declare-fun temp1218_66 () (_ BitVec 64))
(declare-fun temp1218_67 () (_ BitVec 64))
(declare-fun temp1218_68 () (_ BitVec 64))
(declare-fun temp1218_69 () (_ BitVec 64))
(declare-fun temp1218_70 () (_ BitVec 64))
(declare-fun temp1218_71 () (_ BitVec 64))
(declare-fun temp1218_72 () (_ BitVec 64))
(declare-fun temp1218_73 () (_ BitVec 64))
(declare-fun temp1218_74 () (_ BitVec 64))
(declare-fun temp1218_75 () (_ BitVec 64))
(declare-fun temp1218_76 () (_ BitVec 64))
(declare-fun temp1218_77 () (_ BitVec 64))
(declare-fun temp1218_78 () (_ BitVec 64))
(declare-fun temp1218_79 () (_ BitVec 64))
(declare-fun temp1218_80 () (_ BitVec 64))
(declare-fun temp1218_81 () (_ BitVec 64))
(declare-fun temp1218_82 () (_ BitVec 64))
(declare-fun temp1218_83 () (_ BitVec 64))
(declare-fun temp1218_84 () (_ BitVec 64))
(declare-fun temp1218_85 () (_ BitVec 64))
(declare-fun temp1218_86 () (_ BitVec 64))
(declare-fun temp1218_87 () (_ BitVec 64))
(declare-fun temp1218_88 () (_ BitVec 64))
(declare-fun temp1218_89 () (_ BitVec 64))
(declare-fun temp1218_90 () (_ BitVec 64))
(declare-fun temp1218_91 () (_ BitVec 64))
(declare-fun temp1218_92 () (_ BitVec 64))
(declare-fun temp1218_93 () (_ BitVec 64))
(declare-fun temp1218_94 () (_ BitVec 64))
(declare-fun temp1218_95 () (_ BitVec 64))
(declare-fun temp1218_96 () (_ BitVec 64))
(declare-fun temp1218_97 () (_ BitVec 64))
(declare-fun temp1218_98 () (_ BitVec 64))
(declare-fun temp1218_99 () (_ BitVec 64))
(declare-fun temp1218_100 () (_ BitVec 64))
(declare-fun temp1218_101 () (_ BitVec 64))
(declare-fun temp1218_102 () (_ BitVec 64))
(declare-fun temp1218_103 () (_ BitVec 64))
(declare-fun temp1218_104 () (_ BitVec 64))
(declare-fun var2240311 () (_ BitVec 64))
(declare-fun temp1218_105 () (_ BitVec 64))
(declare-fun temp1218_106 () (_ BitVec 64))
(declare-fun var2228402 () (_ BitVec 64))
(declare-fun temp1218_107 () (_ BitVec 64))
(declare-fun temp1218_108 () (_ BitVec 64))
(declare-fun ARGNAME_weight_NAMEEND_DIMSIZE
             ()
             (Array (_ BitVec 64) (_ BitVec 64)))
(declare-fun temp1218_109 () (_ BitVec 64))
(declare-fun temp1218_110 () (_ BitVec 64))
(declare-fun temp1218_111 () (_ BitVec 64))
(declare-fun temp1218_112 () (_ BitVec 64))
(declare-fun temp1218_113 () (_ BitVec 64))
(declare-fun temp1218_114 () (_ BitVec 64))
(declare-fun temp1218_115 () (_ BitVec 64))
(declare-fun temp1218_116 () (_ BitVec 64))
(declare-fun temp1218_117 () (_ BitVec 64))
(declare-fun temp1218_118 () (_ BitVec 64))
(declare-fun temp1218_119 () (_ BitVec 64))
(declare-fun temp1218_120 () (_ BitVec 64))
(declare-fun temp1218_121 () (_ BitVec 64))
(declare-fun temp1218_122 () (_ BitVec 64))
(declare-fun temp1218_123 () (_ BitVec 64))
(declare-fun temp1218_124 () (_ BitVec 64))
(declare-fun temp1218_126 () (_ BitVec 64))
(declare-fun temp1218_127 () (_ BitVec 64))
(declare-fun temp1218_125 () (_ BitVec 64))
(declare-fun var2240356 () (_ BitVec 64))
(declare-fun temp1218_128 () (_ BitVec 64))
(declare-fun temp1218_129 () (_ BitVec 64))
(declare-fun temp1218_131 () (_ BitVec 64))
(declare-fun temp1218_132 () (_ BitVec 64))
(declare-fun temp1218_130 () (_ BitVec 64))
(declare-fun var2240378 () (_ BitVec 64))
(declare-fun temp1218_133 () (_ BitVec 64))
(declare-fun var2240379 () (_ BitVec 64))
(declare-fun temp1218_134 () (_ BitVec 64))
(declare-fun var2240398 () (_ BitVec 64))
(declare-fun temp1218_135 () (_ BitVec 64))
(declare-fun var2240399 () (_ BitVec 64))
(declare-fun temp1218_136 () (_ BitVec 64))
(declare-fun temp1218_137 () (_ BitVec 64))
(declare-fun var2229290 () (_ BitVec 64))
(declare-fun temp1218_139 () (_ BitVec 64))
(declare-fun temp1218_140 () (_ BitVec 64))
(declare-fun temp1218_138 () (_ BitVec 64))
(declare-fun var2240411 () (_ BitVec 64))
(declare-fun temp1218_141 () (_ BitVec 64))
(declare-fun temp1218_143 () (_ BitVec 64))
(declare-fun temp1218_144 () (_ BitVec 64))
(declare-fun temp1218_142 () (_ BitVec 64))
(declare-fun temp1218_145 () (_ BitVec 64))
(declare-fun var2503529 () (_ BitVec 64))
(declare-fun temp1218_146 () (_ BitVec 64))
(declare-fun var2240569 () (_ BitVec 64))
(declare-fun temp1218_147 () (_ BitVec 64))
(declare-fun var1521778 () (_ BitVec 64))
(declare-fun temp1218_148 () (_ BitVec 64))
(declare-fun temp1218_149 () (_ BitVec 64))
(declare-fun var1521908 () (_ BitVec 64))
(declare-fun var4010473 () (_ BitVec 64))
(declare-fun temp1218_150 () (_ BitVec 64))
(declare-fun var4404867 () (_ BitVec 64))
(declare-fun var4404869 () (_ BitVec 64))
(declare-fun var4470412 () (_ BitVec 64))
(declare-fun var4470413 () (_ BitVec 64))
(declare-fun temp1218_152 () (_ BitVec 64))
(declare-fun temp1218_151 () (_ BitVec 64))
(declare-fun temp1218_154 () (_ BitVec 64))
(declare-fun temp1218_153 () (_ BitVec 64))
(declare-fun temp1218_155 () (_ BitVec 64))
(assert (= temp1218_1 #x0000000000000002))
(assert (= var989741 temp1218_1))
(assert (= temp1218_2 #x0000000000000001))
(assert (= var989757 (bvadd var989741 temp1218_2)))
(assert (= temp1218_3 #x0000000000000002))
(assert (= var989761 (bvadd var989741 temp1218_3)))
(assert (= var989766 var989761))
(assert (= var989767
   (ite (= ARGNAME_input_NAMEEND_DIM var989766)
        #x0000000000000001
        #x0000000000000000)))
(assert (= var989768 var989767))
(assert (= var989771 var989757))
(assert (= var989772
   (ite (distinct ARGNAME_input_NAMEEND_DIM var989771)
        #x0000000000000001
        #x0000000000000000)))
(assert (= var989773 var989768))
(assert (= temp1218_4 #x0000000000000001))
(assert (= var989774 (bvand var989773 temp1218_4)))
(assert (= temp1218_5 #x0000000000000000))
(assert (= var989775
   (ite (= var989774 temp1218_5) #x0000000000000001 #x0000000000000000)))
(assert (= var989776 (bvand var989772 var989775)))
(assert (= temp1218_6 #x0000000000000000))
(assert (= var989776 temp1218_6))
(assert (= temp1218_7 #x0000000000000000))
(assert (= var989810
   (ite (= var989773 temp1218_7) #x0000000000000001 #x0000000000000000)))
(assert (= temp1218_8 #x0000000000000001))
(assert (= var989810 temp1218_8))
(assert (= temp1218_10 #x0000000000000000))
(assert (= temp1218_9 temp1218_10))
(assert (= temp1218_12 #x0000000000000002))
(assert (= temp1218_11 temp1218_12))
(assert (= temp1218_13 #x0000000000000000))
(assert (= var1387902 temp1218_13))
(assert (= temp1218_14 #x0000000000000001))
(assert (= var1387923 temp1218_14))
(assert (= var1521369 var1387902))
(assert (= var1521373 var1387923))
(assert (= var1521631 var1521369))
(assert (= var1521633 var1521373))
(assert (= temp1218_15 #xfffffffffffffffe))
(assert (= var1521660 (bvadd ARGNAME_weight_NAMEEND_DIM temp1218_15)))
(assert (= temp1218_16 #x0000000000000003))
(assert (= var1521661
   (ite (bvslt ARGNAME_weight_NAMEEND_DIM temp1218_16)
        #x0000000000000001
        #x0000000000000000)))
(assert (= temp1218_17 #x0000000000000000))
(assert (= var1521661 temp1218_17))
(assert (= temp1218_18 #x0000000000000001))
(assert (= var1521706
   (ite (bvslt ARGNAME_groups_NAMEEND temp1218_18)
        #x0000000000000001
        #x0000000000000000)))
(assert (= temp1218_19 #x0000000000000000))
(assert (= var1521706 temp1218_19))
(assert (= ARGNAME_stride_NAMEEND_LEN var1521660))
(assert (= ARGNAME_padding_NAMEEND_LEN var1521660))
(assert (= ARGNAME_dilation_NAMEEND_LEN var1521660))
(assert (= var2240288 var1521631))
(assert (= temp1218_20 #x0000000000000000))
(assert (= temp1218_21 temp1218_20))
(assert (= temp1218_22 (select ARGNAME_padding_NAMEEND_VAL temp1218_21)))
(assert (= temp1218_23 #x0000000000000001))
(assert (= temp1218_24 temp1218_23))
(assert (= temp1218_25 (select ARGNAME_padding_NAMEEND_VAL temp1218_24)))
(assert (= temp1218_26 #x0000000000000002))
(assert (= temp1218_27 temp1218_26))
(assert (= temp1218_28 (select ARGNAME_padding_NAMEEND_VAL temp1218_27)))
(assert (= temp1218_29 #x0000000000000003))
(assert (= temp1218_30 temp1218_29))
(assert (= temp1218_31 (select ARGNAME_padding_NAMEEND_VAL temp1218_30)))
(assert (= temp1218_32 #x0000000000000004))
(assert (= temp1218_33 temp1218_32))
(assert (= temp1218_34 (select ARGNAME_padding_NAMEEND_VAL temp1218_33)))
(assert (= temp1218_35 #x0000000000000005))
(assert (= temp1218_36 temp1218_35))
(assert (= temp1218_37 (select ARGNAME_padding_NAMEEND_VAL temp1218_36)))
(assert (= temp1218_38 #x0000000000000000))
(assert (= temp1218_39 #x0000000000000000))
(assert (= temp1218_40 temp1218_39))
(assert (= temp1218_41 (select ARGNAME_padding_NAMEEND_VAL temp1218_40)))
(assert (= temp1218_42 #x0000000000000000))
(assert (= temp1218_43 #x0000000000000001))
(assert (= temp1218_44 temp1218_43))
(assert (= temp1218_45 (select ARGNAME_padding_NAMEEND_VAL temp1218_44)))
(assert (= temp1218_46 #x0000000000000000))
(assert (= temp1218_47 #x0000000000000002))
(assert (= temp1218_48 temp1218_47))
(assert (= temp1218_49 (select ARGNAME_padding_NAMEEND_VAL temp1218_48)))
(assert (= temp1218_50 #x0000000000000000))
(assert (= temp1218_51 #x0000000000000003))
(assert (= temp1218_52 temp1218_51))
(assert (= temp1218_53 (select ARGNAME_padding_NAMEEND_VAL temp1218_52)))
(assert (= temp1218_54 #x0000000000000000))
(assert (= temp1218_55 #x0000000000000004))
(assert (= temp1218_56 temp1218_55))
(assert (= temp1218_57 (select ARGNAME_padding_NAMEEND_VAL temp1218_56)))
(assert (= temp1218_58 #x0000000000000000))
(assert (= temp1218_59 #x0000000000000005))
(assert (= temp1218_60 temp1218_59))
(assert (= temp1218_61 (select ARGNAME_padding_NAMEEND_VAL temp1218_60)))
(assert (= var2240290
   (ite (and true
             (bvslt temp1218_41 temp1218_38)
             (bvslt temp1218_45 temp1218_42)
             (bvslt temp1218_49 temp1218_46)
             (bvslt temp1218_53 temp1218_50)
             (bvslt temp1218_57 temp1218_54)
             (bvslt temp1218_61 temp1218_58))
        #x0000000000000001
        #x0000000000000000)))
(assert (= temp1218_62 #x0000000000000000))
(assert (= var2240290 temp1218_62))
(assert (= temp1218_63 #x0000000000000000))
(assert (= temp1218_64 temp1218_63))
(assert (= temp1218_65 (select ARGNAME_stride_NAMEEND_VAL temp1218_64)))
(assert (= temp1218_66 #x0000000000000001))
(assert (= temp1218_67 temp1218_66))
(assert (= temp1218_68 (select ARGNAME_stride_NAMEEND_VAL temp1218_67)))
(assert (= temp1218_69 #x0000000000000002))
(assert (= temp1218_70 temp1218_69))
(assert (= temp1218_71 (select ARGNAME_stride_NAMEEND_VAL temp1218_70)))
(assert (= temp1218_72 #x0000000000000003))
(assert (= temp1218_73 temp1218_72))
(assert (= temp1218_74 (select ARGNAME_stride_NAMEEND_VAL temp1218_73)))
(assert (= temp1218_75 #x0000000000000004))
(assert (= temp1218_76 temp1218_75))
(assert (= temp1218_77 (select ARGNAME_stride_NAMEEND_VAL temp1218_76)))
(assert (= temp1218_78 #x0000000000000005))
(assert (= temp1218_79 temp1218_78))
(assert (= temp1218_80 (select ARGNAME_stride_NAMEEND_VAL temp1218_79)))
(assert (= temp1218_81 #x0000000000000000))
(assert (= temp1218_82 #x0000000000000000))
(assert (= temp1218_83 temp1218_82))
(assert (= temp1218_84 (select ARGNAME_stride_NAMEEND_VAL temp1218_83)))
(assert (= temp1218_85 #x0000000000000000))
(assert (= temp1218_86 #x0000000000000001))
(assert (= temp1218_87 temp1218_86))
(assert (= temp1218_88 (select ARGNAME_stride_NAMEEND_VAL temp1218_87)))
(assert (= temp1218_89 #x0000000000000000))
(assert (= temp1218_90 #x0000000000000002))
(assert (= temp1218_91 temp1218_90))
(assert (= temp1218_92 (select ARGNAME_stride_NAMEEND_VAL temp1218_91)))
(assert (= temp1218_93 #x0000000000000000))
(assert (= temp1218_94 #x0000000000000003))
(assert (= temp1218_95 temp1218_94))
(assert (= temp1218_96 (select ARGNAME_stride_NAMEEND_VAL temp1218_95)))
(assert (= temp1218_97 #x0000000000000000))
(assert (= temp1218_98 #x0000000000000004))
(assert (= temp1218_99 temp1218_98))
(assert (= temp1218_100 (select ARGNAME_stride_NAMEEND_VAL temp1218_99)))
(assert (= temp1218_101 #x0000000000000000))
(assert (= temp1218_102 #x0000000000000005))
(assert (= temp1218_103 temp1218_102))
(assert (= temp1218_104 (select ARGNAME_stride_NAMEEND_VAL temp1218_103)))
(assert (= var2240311
   (ite (and true
             (bvsle temp1218_84 temp1218_81)
             (bvsle temp1218_88 temp1218_85)
             (bvsle temp1218_92 temp1218_89)
             (bvsle temp1218_96 temp1218_93)
             (bvsle temp1218_100 temp1218_97)
             (bvsle temp1218_104 temp1218_101))
        #x0000000000000001
        #x0000000000000000)))
(assert (= temp1218_105 #x0000000000000000))
(assert (= var2240311 temp1218_105))
(assert (= temp1218_106 #x0000000000000000))
(assert (= var2228402 temp1218_106))
(assert (= temp1218_107 #x0000000000000000))
(assert (= temp1218_108 temp1218_107))
(assert (= temp1218_109 (select ARGNAME_weight_NAMEEND_DIMSIZE temp1218_108)))
(assert (= temp1218_110 #x0000000000000001))
(assert (= temp1218_111 temp1218_110))
(assert (= temp1218_112 (select ARGNAME_weight_NAMEEND_DIMSIZE temp1218_111)))
(assert (= temp1218_113 #x0000000000000002))
(assert (= temp1218_114 temp1218_113))
(assert (= temp1218_115 (select ARGNAME_weight_NAMEEND_DIMSIZE temp1218_114)))
(assert (= temp1218_116 #x0000000000000003))
(assert (= temp1218_117 temp1218_116))
(assert (= temp1218_118 (select ARGNAME_weight_NAMEEND_DIMSIZE temp1218_117)))
(assert (= temp1218_119 #x0000000000000004))
(assert (= temp1218_120 temp1218_119))
(assert (= temp1218_121 (select ARGNAME_weight_NAMEEND_DIMSIZE temp1218_120)))
(assert (= temp1218_122 #x0000000000000005))
(assert (= temp1218_123 temp1218_122))
(assert (= temp1218_124 (select ARGNAME_weight_NAMEEND_DIMSIZE temp1218_123)))
(assert (= temp1218_126 var2228402))
(assert (= temp1218_127 (select ARGNAME_weight_NAMEEND_DIMSIZE temp1218_126)))
(assert (= temp1218_125 temp1218_127))
(assert (= var2240356
   (ite (bvslt temp1218_125 ARGNAME_groups_NAMEEND)
        #x0000000000000001
        #x0000000000000000)))
(assert (= temp1218_128 #x0000000000000000))
(assert (= var2240356 temp1218_128))
(assert (= temp1218_129 #x0000000000000000))
(assert (= var2228402 temp1218_129))
(assert (= temp1218_131 var2228402))
(assert (= temp1218_132 (select ARGNAME_weight_NAMEEND_DIMSIZE temp1218_131)))
(assert (= temp1218_130 temp1218_132))
(assert (= var2240378 (bvsmod temp1218_130 ARGNAME_groups_NAMEEND)))
(assert (= temp1218_133 #x0000000000000000))
(assert (= var2240379
   (ite (= var2240378 temp1218_133) #x0000000000000001 #x0000000000000000)))
(assert (= temp1218_134 #x0000000000000001))
(assert (= var2240379 temp1218_134))
(assert (= var2240398 var2240288))
(assert (= temp1218_135 #x0000000000000000))
(assert (= var2240399
   (ite (= var2240398 temp1218_135) #x0000000000000001 #x0000000000000000)))
(assert (= temp1218_136 #x0000000000000001))
(assert (= var2240399 temp1218_136))
(assert (= temp1218_137 #x0000000000000001))
(assert (= var2229290 temp1218_137))
(assert (= temp1218_139 var2229290))
(assert (= temp1218_140 (select ARGNAME_weight_NAMEEND_DIMSIZE temp1218_139)))
(assert (= temp1218_138 temp1218_140))
(assert (= var2240411 (bvmul ARGNAME_groups_NAMEEND temp1218_138)))
(assert (= temp1218_141 #x0000000000000000))
(assert (= var2228402 temp1218_141))
(assert (= temp1218_143 var2228402))
(assert (= temp1218_144 (select ARGNAME_weight_NAMEEND_DIMSIZE temp1218_143)))
(assert (= temp1218_142 temp1218_144))
(assert (= temp1218_145 #x0000000000000002))
(assert (= var2503529 temp1218_145))
(assert (= temp1218_146 #x0000000000000001))
(assert (= var2240569 temp1218_146))
(assert (= temp1218_147 #x0000000000000003))
(assert (= var1521778
   (ite (= ARGNAME_weight_NAMEEND_DIM temp1218_147)
        #x0000000000000001
        #x0000000000000000)))
(assert (= temp1218_148 #x0000000000000001))
(assert (= var1521778 temp1218_148))
(assert (= temp1218_149 #x0000000000000001))
(assert (= var1521908 temp1218_149))
(assert (= var4010473 var1521908))
(assert (= temp1218_150 #x0000000000000002))
(assert (= var4404867 temp1218_150))
(assert (= var4404869 (bvsub ARGNAME_weight_NAMEEND_DIM var4404867)))
(assert (= var4470412 var4404867))
(assert (= var4470413 var4404869))
(assert (= temp1218_152 #xffffffffffffffff))
(assert (= temp1218_151 temp1218_152))
(assert (= temp1218_154 #xffffffffffffffff))
(assert (= temp1218_153 temp1218_154))
(assert (= temp1218_155 #x0000000000000001))
(assert (= var1521778 temp1218_155))
(model-add temp1218_1 () (_ BitVec 64) #x0000000000000002)
(model-add var989741 () (_ BitVec 64) #x0000000000000002)
(model-add temp1218_2 () (_ BitVec 64) #x0000000000000001)
(model-add var989757 () (_ BitVec 64) #x0000000000000003)
(model-add temp1218_3 () (_ BitVec 64) #x0000000000000002)
(model-add var989761 () (_ BitVec 64) #x0000000000000004)
(model-add var989766 () (_ BitVec 64) #x0000000000000004)
(model-add var989767
           ()
           (_ BitVec 64)
           (ite (= ARGNAME_input_NAMEEND_DIM #x0000000000000004)
                #x0000000000000001
                #x0000000000000000))
(model-add var989768
           ()
           (_ BitVec 64)
           (ite (= ARGNAME_input_NAMEEND_DIM #x0000000000000004)
                #x0000000000000001
                #x0000000000000000))
(model-add var989771 () (_ BitVec 64) #x0000000000000003)
(model-add var989772
           ()
           (_ BitVec 64)
           (ite (= ARGNAME_input_NAMEEND_DIM #x0000000000000003)
                #x0000000000000000
                #x0000000000000001))
(model-add var989773
           ()
           (_ BitVec 64)
           (ite (= ARGNAME_input_NAMEEND_DIM #x0000000000000004)
                #x0000000000000001
                #x0000000000000000))
(model-add temp1218_4 () (_ BitVec 64) #x0000000000000001)
(model-add var989774
           ()
           (_ BitVec 64)
           (concat #b000000000000000000000000000000000000000000000000000000000000000
                   (ite (= ARGNAME_input_NAMEEND_DIM #x0000000000000004)
                        #b1
                        #b0)))
(model-add temp1218_5 () (_ BitVec 64) #x0000000000000000)
(model-add var989775
           ()
           (_ BitVec 64)
           (ite (= ARGNAME_input_NAMEEND_DIM #x0000000000000004)
                #x0000000000000000
                #x0000000000000001))
(model-add temp1218_6 () (_ BitVec 64) #x0000000000000000)
(model-add var989776 () (_ BitVec 64) #x0000000000000000)






